(set-option :print-success false)
(set-logic QF_UF)
(declare-sort x119 0)
(declare-sort x159 0)
(declare-fun x116 () x159)
(declare-fun x69 (x159 x159) x159)
(declare-fun x123 () x159)
(declare-fun x81 () x159)
(declare-fun x146 (x159 x159) x159)
(declare-fun x48 () x159)
(declare-fun x33 () x159)
(assert (let ((x98 (x146 x48 x48)) (x60 (x146 x123 x33)) (x129 (x146 x81 x116)) (x139 (x146 x81 x48)) (x133 (x146 x116 x81)) (x39 (x146 x116 x48)) (x8 (x146 x123 x81)) (x7 (x146 x123 x116)) (x157 (x146 x81 x123)) (x117 (x146 x33 x48)) (x51 (x146 x116 x116)) (x141 (x146 x81 x81)) (x55 (x146 x48 x81)) (x11 (x146 x116 x123)) (x71 (x146 x48 x123)) (x74 (x146 x48 x33)) (x30 (x146 x123 x123)) (x80 (x146 x33 x123)) (x89 (x146 x33 x116)) (x73 (x146 x48 x116)) (x114 (x146 x116 x33)) (x112 (x146 x123 x48)) (x143 (x146 x33 x33)) (x82 (x146 x81 x33)) (x10 (x146 x33 x81))) (and (and (and (and (and (and (and (and (and (not (= x73 x89)) (and (not (= x51 x73)) (and (and (not (= x89 x129)) (and (not (= x129 x51)) (not (= x129 x73)))) (not (= x129 x7))))) (not (= x73 x7))) (not (= x51 x89))) (not (= x51 x7))) (not (= x7 x89))) (and (and (and (and (and (and (not (= x98 x117)) (and (not (= x98 x39)) (and (not (= x139 x112)) (and (and (not (= x139 x39)) (not (= x139 x98))) (not (= x117 x139)))))) (not (= x98 x112))) (not (= x117 x39))) (not (= x39 x112))) (not (= x117 x112))) (and (not (= x10 x8)) (and (and (not (= x133 x10)) (and (and (and (and (and (and (not (= x133 x141)) (not (= x141 x55))) (not (= x10 x141))) (not (= x8 x141))) (not (= x133 x55))) (not (= x10 x55))) (not (= x55 x8)))) (not (= x8 x133)))))) (and (and (and (and (not (= x60 x74)) (and (and (not (= x74 x114)) (and (and (not (= x143 x82)) (and (not (= x74 x82)) (not (= x82 x114)))) (not (= x82 x60)))) (not (= x143 x74)))) (not (= x143 x114))) (not (= x60 x114))) (not (= x143 x60)))) (and (not (= x30 x80)) (and (and (not (= x80 x11)) (and (not (= x30 x71)) (and (and (and (and (and (not (= x11 x157)) (not (= x157 x71))) (not (= x80 x157))) (not (= x30 x157))) (not (= x11 x71))) (not (= x71 x80))))) (not (= x11 x30))))) (and (and (and (and (not (= x89 x80)) (and (and (and (not (= x143 x117)) (and (and (and (and (not (= x89 x10)) (not (= x10 x117))) (not (= x10 x143))) (not (= x10 x80))) (not (= x117 x89)))) (not (= x80 x117))) (not (= x143 x89)))) (not (= x143 x80))) (and (and (and (and (not (= x114 x51)) (and (not (= x39 x11)) (and (not (= x39 x114)) (and (and (not (= x133 x11)) (and (not (= x114 x133)) (and (not (= x39 x133)) (not (= x133 x51))))) (not (= x51 x39)))))) (not (= x51 x11))) (not (= x114 x11))) (and (and (and (not (= x157 x129)) (and (not (= x82 x129)) (and (not (= x157 x139)) (and (not (= x139 x82)) (and (not (= x129 x139)) (and (not (= x141 x157)) (and (not (= x82 x141)) (and (not (= x141 x139)) (not (= x141 x129)))))))))) (not (= x157 x82))) (and (not (= x74 x71)) (and (not (= x71 x73)) (and (and (and (not (= x98 x74)) (and (and (and (and (not (= x73 x55)) (not (= x55 x98))) (not (= x74 x55))) (not (= x71 x55))) (not (= x73 x98)))) (not (= x98 x71))) (not (= x73 x74)))))))) (and (and (and (not (= x7 x60)) (and (not (= x112 x30)) (and (and (not (= x7 x112)) (and (and (and (not (= x8 x112)) (not (= x8 x7))) (not (= x60 x8))) (not (= x30 x8)))) (not (= x60 x112))))) (not (= x30 x7))) (not (= x30 x60)))))))
(assert (let ((x10 (x146 x48 x81)) (x94 (x146 x123 x116)) (x21 (x146 x123 x33)) (x11 (x146 x48 x33)) (x80 (x146 x48 x123)) (x9 (x146 x33 x48)) (x112 (x146 x123 x81)) (x139 (x146 x116 x81)) (x153 (x146 x123 x123)) (x66 (x146 x116 x116)) (x51 (x146 x81 x48)) (x110 (x146 x123 x48)) (x82 (x146 x81 x33)) (x18 (x146 x33 x116)) (x2 (x146 x116 x48)) (x71 (x146 x48 x116)) (x22 (x146 x116 x33)) (x55 (x146 x81 x81)) (x7 (x146 x81 x116)) (x88 (x146 x33 x123)) (x60 (x146 x48 x48)) (x39 (x146 x33 x81)) (x79 (x146 x116 x123)) (x107 (x146 x33 x33)) (x74 (x146 x81 x123))) (let ((x106 (= x116 x18)) (x90 (= x33 x66)) (x118 (= x81 x79)) (x127 (= x11 x116)) (x28 (= x33 x139)) (x35 (= x48 x71)) (x41 (= x123 x11)) (x140 (= x33 x94)) (x114 (= x48 x10)) (x91 (= x33 x79)) (x111 (= x110 x81)) (x65 (= x123 x153)) (x155 (= x116 x2)) (x113 (= x123 x88)) (x87 (= x116 x139)) (x42 (= x79 x48)) (x64 (= x81 x153)) (x134 (= x10 x33)) (x56 (= x82 x48)) (x67 (= x123 x80)) (x20 (= x66 x123)) (x132 (= x71 x81)) (x142 (= x48 x153)) (x102 (= x81 x74)) (x92 (= x11 x48)) (x45 (= x33 x88)) (x5 (= x94 x116)) (x101 (= x71 x33)) (x103 (= x116 x51)) (x145 (= x22 x81)) (x19 (= x74 x123)) (x37 (= x80 x116)) (x49 (= x9 x116)) (x136 (= x123 x55)) (x76 (= x33 x21)) (x128 (= x22 x33)) (x34 (= x112 x33)) (x59 (= x123 x110)) (x17 (= x21 x48)) (x109 (= x123 x9)) (x83 (= x88 x48)) (x99 (= x123 x139)) (x108 (= x33 x107)) (x70 (= x116 x22)) (x154 (= x48 x39)) (x32 (= x107 x123)) (x86 (= x81 x66)) (x151 (= x94 x123)) (x13 (= x71 x116)) (x38 (= x71 x123)) (x73 (= x81 x51)) (x137 (= x82 x81)) (x75 (= x9 x48)) (x104 (= x116 x66)) (x47 (= x7 x123)) (x31 (= x39 x33)) (x124 (= x81 x107)) (x3 (= x48 x94)) (x57 (= x88 x116)) (x122 (= x10 x116)) (x29 (= x18 x81)) (x26 (= x11 x33)) (x96 (= x33 x110)) (x44 (= x48 x18)) (x85 (= x74 x33)) (x12 (= x116 x79)) (x125 (= x116 x110)) (x148 (= x21 x123)) (x144 (= x18 x123)) (x84 (= x80 x81)) (x15 (= x123 x79)) (x89 (= x51 x48)) (x147 (= x51 x33)) (x72 (= x82 x33)) (x61 (= x2 x48)) (x157 (= x48 x60)) (x117 (= x81 x112)) (x8 (= x139 x81)) (x156 (= x88 x81)) (x77 (= x153 x33)) (x68 (= x123 x82)) (x24 (= x81 x7)) (x50 (= x81 x9)) (x93 (= x116 x107)) (x53 (= x112 x116)) (x131 (= x153 x116)) (x78 (= x116 x39)) (x36 (= x33 x7)) (x52 (= x60 x33)) (x115 (= x123 x10)) (x133 (= x81 x10)) (x14 (= x33 x55)) (x58 (= x18 x33)) (x141 (= x81 x55)) (x150 (= x48 x7)) (x23 (= x66 x48)) (x135 (= x110 x48)) (x100 (= x48 x80)) (x25 (= x22 x123)) (x54 (= x107 x48)) (x120 (= x116 x74)) (x126 (= x116 x60)) (x121 (= x33 x9)) (x105 (= x51 x123)) (x27 (= x116 x82)) (x43 (= x39 x123)) (x1 (= x74 x48)) (x16 (= x94 x81)) (x97 (= x11 x81)) (x6 (= x116 x55)) (x130 (= x81 x21)) (x149 (= x2 x123)) (x129 (= x48 x55)) (x158 (= x33 x2)) (x63 (= x21 x116)) (x152 (= x22 x48)) (x98 (= x81 x39)) (x143 (= x81 x60)) (x4 (= x81 x2)) (x138 (= x123 x112)) (x62 (= x48 x112)) (x95 (= x116 x7)) (x46 (= x80 x33)) (x30 (= x139 x48)) (x40 (= x123 x60))) (and (or (or (or (or (and (not x15) x15) (or (and x25 (not x91)) (or (or (and (not x118) x99) (and x149 (not x42))) (and x20 (not x12))))) (or (or (or (or (and (not x37) x38) (or (and (not x100) x40) (and (not x84) x115))) (and x41 (not x46))) (and (not x67) x67)) (or (and (not x19) x19) (or (and (not x85) x68) (or (and x47 (not x120)) (or (and x105 (not x1)) (and x136 (not x102)))))))) (or (and x113 (not x113)) (or (and (not x45) x32) (or (and x144 (not x57)) (or (and x109 (not x83)) (and (not x156) x43)))))) (or (and (not x65) x65) (or (or (and x151 (not x131)) (or (and (not x64) x138) (and (not x142) x59))) (and x148 (not x77))))) (and (and (and (or (or (or (or (or (and (not x62) x111) (and x117 (not x117))) (and x16 (not x53))) (and x130 (not x34))) (and (not x138) x64)) (or (or (or (or (or (or (or (and (not x141) x141) (and x73 (not x129))) (and x24 (not x6))) (and (not x14) x137)) (and (not x136) x102)) (or (and (not x115) x84) (or (or (and (not x122) x132) (or (and (not x114) x143) (and x133 (not x133)))) (and x97 (not x134))))) (or (and x118 (not x99)) (or (and x145 (not x28)) (or (and x86 (not x87)) (or (and x4 (not x30)) (and x8 (not x8))))))) (or (and (not x43) x156) (or (or (or (and x50 (not x154)) (and x98 (not x98))) (and (not x78) x29)) (and (not x31) x124))))) (or (or (or (or (or (or (or (or (and (not x157) x157) (and (not x143) x114)) (and (not x126) x35)) (and (not x52) x92)) (and x100 (not x40))) (or (or (or (and x150 (not x103)) (or (and (not x73) x129) (and x89 (not x89)))) (and (not x147) x56)) (and (not x105) x1))) (or (and x42 (not x149)) (or (and (not x158) x152) (or (or (and x61 (not x61)) (and (not x4) x30)) (and (not x155) x23))))) (or (and x83 (not x109)) (or (or (or (and x154 (not x50)) (and (not x75) x75)) (and (not x49) x44)) (and x54 (not x121))))) (or (or (or (or (and x135 (not x135)) (and (not x111) x62)) (and x3 (not x125))) (and (not x96) x17)) (and (not x59) x142)))) (or (or (or (and (not x140) x63) (or (or (and x53 (not x16)) (and x125 (not x3))) (and (not x5) x5))) (and x131 (not x151))) (or (or (or (or (or (and (not x104) x104) (or (and x155 (not x23)) (and x87 (not x86)))) (and x70 (not x90))) (and (not x20) x12)) (or (or (and (not x38) x37) (or (and x127 (not x101)) (or (and x13 (not x13)) (or (and (not x132) x122) (and x126 (not x35)))))) (or (or (or (and x95 (not x95)) (or (and x103 (not x150)) (and (not x24) x6))) (and x27 (not x36))) (and x120 (not x47))))) (or (and (not x144) x57) (or (and (not x58) x93) (or (and x106 (not x106)) (or (and x49 (not x44)) (and x78 (not x29))))))))) (or (or (or (or (and x91 (not x25)) (or (and x128 (not x128)) (or (and (not x70) x90) (or (and x158 (not x152)) (and x28 (not x145)))))) (or (or (or (and x26 (not x26)) (or (and (not x127) x101) (or (and (not x92) x52) (and (not x97) x134)))) (and (not x41) x46)) (or (and x85 (not x68)) (or (or (or (and (not x56) x147) (and x14 (not x137))) (and x36 (not x27))) (and x72 (not x72)))))) (or (and x45 (not x32)) (or (or (and (not x93) x58) (or (and (not x124) x31) (and x121 (not x54)))) (and x108 (not x108))))) (or (and (not x148) x77) (or (and (not x76) x76) (or (and x140 (not x63)) (or (and (not x17) x96) (and x34 (not x130))))))))))))
(assert (and (or (or (or (= (x146 x116 (x146 x123 x116)) x123) (or (= (x146 x48 (x146 x123 x48)) x123) (= (x146 x81 (x146 x123 x81)) x123))) (= (x146 x33 (x146 x123 x33)) x123)) (= x123 (x146 x123 (x146 x123 x123)))) (and (or (or (= (x146 x33 (x146 x33 x33)) x33) (or (= (x146 x116 (x146 x33 x116)) x33) (or (= x33 (x146 x81 (x146 x33 x81))) (= x33 (x146 x48 (x146 x33 x48)))))) (= x33 (x146 x123 (x146 x33 x123)))) (and (and (or (= x81 (x146 x123 (x146 x81 x123))) (or (= (x146 x33 (x146 x81 x33)) x81) (or (= x81 (x146 x116 (x146 x81 x116))) (or (= x81 (x146 x48 (x146 x81 x48))) (= (x146 x81 (x146 x81 x81)) x81))))) (or (or (or (or (= (x146 x81 (x146 x48 x81)) x48) (= (x146 x48 (x146 x48 x48)) x48)) (= x48 (x146 x116 (x146 x48 x116)))) (= x48 (x146 x33 (x146 x48 x33)))) (= (x146 x123 (x146 x48 x123)) x48))) (or (= (x146 x123 (x146 x116 x123)) x116) (or (or (= (x146 x116 (x146 x116 x116)) x116) (or (= x116 (x146 x48 (x146 x116 x48))) (= x116 (x146 x81 (x146 x116 x81))))) (= (x146 x33 (x146 x116 x33)) x116)))))))
(assert (let ((x73 (x146 x116 x48)) (x114 (x146 x33 x116)) (x39 (x146 x48 x116)) (x74 (x146 x33 x48)) (x60 (x146 x33 x123)) (x8 (x146 x81 x123)) (x112 (x146 x48 x123)) (x51 (x146 x116 x116)) (x157 (x146 x123 x81)) (x129 (x146 x116 x81)) (x10 (x146 x81 x33)) (x89 (x146 x116 x33)) (x143 (x146 x33 x33)) (x71 (x146 x123 x48)) (x82 (x146 x33 x81)) (x80 (x146 x123 x33)) (x7 (x146 x116 x123)) (x141 (x146 x81 x81)) (x139 (x146 x48 x81)) (x117 (x146 x48 x33)) (x11 (x146 x123 x116)) (x133 (x146 x81 x116)) (x98 (x146 x48 x48)) (x55 (x146 x81 x48)) (x30 (x146 x123 x123))) (and (and (and (and (and (and (and (and (or (or (or (= x141 x116) (or (= x141 x48) (= x141 x81))) (= x33 x141)) (= x141 x123)) (or (= x55 x123) (or (= x33 x55) (or (= x55 x116) (or (= x55 x81) (= x48 x55)))))) (or (or (or (= x133 x116) (or (= x133 x48) (= x81 x133))) (= x33 x133)) (= x123 x133))) (or (or (or (= x116 x10) (or (= x10 x81) (= x10 x48))) (= x10 x33)) (= x10 x123))) (or (= x8 x123) (or (or (= x116 x8) (or (= x48 x8) (= x81 x8))) (= x8 x33)))) (and (or (= x112 x123) (or (= x33 x112) (or (or (= x112 x48) (= x112 x81)) (= x116 x112)))) (and (and (or (or (= x33 x39) (or (= x116 x39) (or (= x39 x48) (= x81 x39)))) (= x123 x39)) (and (or (= x123 x98) (or (= x33 x98) (or (= x116 x98) (or (= x98 x81) (= x98 x48))))) (or (= x139 x123) (or (= x139 x33) (or (= x139 x116) (or (= x139 x81) (= x48 x139))))))) (or (or (= x33 x117) (or (= x116 x117) (or (= x48 x117) (= x81 x117)))) (= x117 x123))))) (and (or (or (or (= x116 x7) (or (= x81 x7) (= x7 x48))) (= x7 x33)) (= x123 x7)) (and (or (= x89 x123) (or (= x33 x89) (or (= x89 x116) (or (= x48 x89) (= x81 x89))))) (and (or (or (= x33 x51) (or (or (= x51 x48) (= x81 x51)) (= x51 x116))) (= x51 x123)) (and (or (or (or (or (= x73 x48) (= x73 x81)) (= x116 x73)) (= x73 x33)) (= x123 x73)) (or (= x123 x129) (or (or (= x129 x116) (or (= x48 x129) (= x129 x81))) (= x33 x129)))))))) (and (and (and (and (or (or (= x33 x74) (or (= x116 x74) (or (= x74 x81) (= x48 x74)))) (= x74 x123)) (or (or (= x33 x82) (or (= x82 x116) (or (= x82 x81) (= x82 x48)))) (= x123 x82))) (or (= x114 x123) (or (= x114 x33) (or (or (= x114 x48) (= x81 x114)) (= x116 x114))))) (or (= x143 x123) (or (or (or (= x143 x48) (= x143 x81)) (= x116 x143)) (= x143 x33)))) (or (= x60 x123) (or (or (= x116 x60) (or (= x60 x81) (= x48 x60))) (= x33 x60))))) (and (and (and (or (or (or (= x116 x11) (or (= x48 x11) (= x81 x11))) (= x33 x11)) (= x123 x11)) (and (or (or (= x33 x157) (or (= x157 x116) (or (= x157 x81) (= x157 x48)))) (= x123 x157)) (or (or (= x33 x71) (or (or (= x71 x81) (= x48 x71)) (= x116 x71))) (= x123 x71)))) (or (= x80 x123) (or (= x33 x80) (or (= x80 x116) (or (= x48 x80) (= x81 x80)))))) (or (= x30 x123) (or (or (or (= x48 x30) (= x30 x81)) (= x30 x116)) (= x33 x30)))))))
(assert (let ((x10 (x146 x33 x33)) (x8 (x146 x123 x123)) (x133 (x146 x116 x116)) (x55 (x146 x48 x48)) (x141 (x146 x81 x81))) (or (and (not (= x123 x8)) (and (not (= x10 x123)) (and (and (not (= x141 x123)) (not (= x123 x55))) (not (= x123 x133))))) (or (or (and (not (= x116 x8)) (and (and (and (not (= x116 x141)) (not (= x55 x116))) (not (= x116 x133))) (not (= x116 x10)))) (or (and (not (= x8 x48)) (and (and (not (= x133 x48)) (and (not (= x55 x48)) (not (= x48 x141)))) (not (= x10 x48)))) (and (and (and (not (= x81 x133)) (and (not (= x81 x141)) (not (= x55 x81)))) (not (= x10 x81))) (not (= x81 x8))))) (and (not (= x33 x8)) (and (not (= x10 x33)) (and (not (= x33 x133)) (and (not (= x141 x33)) (not (= x33 x55))))))))))
(assert (or (or (or (and (and (not (= x33 (x146 x116 x33))) (and (and (not (= x48 (x146 x116 x48))) (not (= x81 (x146 x116 x81)))) (not (= (x146 x116 x116) x116)))) (not (= (x146 x116 x123) x123))) (or (and (not (= (x146 x48 x123) x123)) (and (not (= x33 (x146 x48 x33))) (and (not (= (x146 x48 x116) x116)) (and (not (= (x146 x48 x81) x81)) (not (= (x146 x48 x48) x48)))))) (and (and (not (= x33 (x146 x81 x33))) (and (not (= (x146 x81 x116) x116)) (and (not (= x81 (x146 x81 x81))) (not (= (x146 x81 x48) x48))))) (not (= x123 (x146 x81 x123)))))) (and (and (not (= (x146 x33 x33) x33)) (and (and (not (= (x146 x33 x81) x81)) (not (= (x146 x33 x48) x48))) (not (= (x146 x33 x116) x116)))) (not (= (x146 x33 x123) x123)))) (and (not (= (x146 x123 x123) x123)) (and (and (and (not (= x81 (x146 x123 x81))) (not (= x48 (x146 x123 x48)))) (not (= (x146 x123 x116) x116))) (not (= x33 (x146 x123 x33)))))))
(assert (and (and (and (and (or (or (= (x146 (x146 x33 x81) x81) x33) (or (= (x146 (x146 x116 x81) x81) x116) (or (= x81 (x146 (x146 x81 x81) x81)) (= (x146 (x146 x48 x81) x81) x48)))) (= x123 (x146 (x146 x123 x81) x81))) (or (or (or (= x116 (x146 (x146 x116 x48) x48)) (or (= (x146 (x146 x48 x48) x48) x48) (= x81 (x146 (x146 x81 x48) x48)))) (= (x146 (x146 x33 x48) x48) x33)) (= (x146 (x146 x123 x48) x48) x123))) (or (or (= x33 (x146 (x146 x33 x116) x116)) (or (= (x146 (x146 x116 x116) x116) x116) (or (= x48 (x146 (x146 x48 x116) x116)) (= x81 (x146 (x146 x81 x116) x116))))) (= (x146 (x146 x123 x116) x116) x123))) (or (= (x146 (x146 x123 x33) x33) x123) (or (or (= (x146 (x146 x116 x33) x33) x116) (or (= (x146 (x146 x48 x33) x33) x48) (= x81 (x146 (x146 x81 x33) x33)))) (= x33 (x146 (x146 x33 x33) x33))))) (or (or (or (= (x146 (x146 x116 x123) x123) x116) (or (= x48 (x146 (x146 x48 x123) x123)) (= x81 (x146 (x146 x81 x123) x123)))) (= x33 (x146 (x146 x33 x123) x123))) (= (x146 (x146 x123 x123) x123) x123))))
(assert (and (and (and (or (= x116 (x146 (x146 x123 x116) x123)) (or (= x116 (x146 (x146 x33 x116) x33)) (or (= x116 (x146 (x146 x116 x116) x116)) (or (= (x146 (x146 x81 x116) x81) x116) (= (x146 (x146 x48 x116) x48) x116))))) (and (or (or (= x81 (x146 (x146 x33 x81) x33)) (or (= x81 (x146 (x146 x116 x81) x116)) (or (= (x146 (x146 x48 x81) x48) x81) (= x81 (x146 (x146 x81 x81) x81))))) (= x81 (x146 (x146 x123 x81) x123))) (or (or (or (or (= x48 (x146 (x146 x48 x48) x48)) (= (x146 (x146 x81 x48) x81) x48)) (= x48 (x146 (x146 x116 x48) x116))) (= (x146 (x146 x33 x48) x33) x48)) (= x48 (x146 (x146 x123 x48) x123))))) (or (or (= (x146 (x146 x33 x33) x33) x33) (or (or (= x33 (x146 (x146 x48 x33) x48)) (= x33 (x146 (x146 x81 x33) x81))) (= x33 (x146 (x146 x116 x33) x116)))) (= (x146 (x146 x123 x33) x123) x33))) (or (= (x146 (x146 x123 x123) x123) x123) (or (or (= x123 (x146 (x146 x116 x123) x116)) (or (= (x146 (x146 x81 x123) x81) x123) (= x123 (x146 (x146 x48 x123) x48)))) (= x123 (x146 (x146 x33 x123) x33))))))
(assert (not (and (= x81 (x146 x123 x123)) (and (and (and (and (= x33 (x146 x123 x81)) (and (= (x146 x33 x123) x33) (and (and (= (x146 x33 x116) x48) (and (and (and (and (= (x146 x116 x33) x81) (and (and (= x33 (x146 x116 x48)) (and (= (x146 x116 x81) x48) (and (and (= x33 (x146 x48 x33)) (and (= x81 (x146 x48 x116)) (and (and (= (x146 x48 x81) x123) (and (= (x146 x81 x123) x123) (and (= (x146 x81 x33) x116) (and (= (x146 x81 x116) x33) (and (= (x146 x81 x48) x48) (= (x146 x81 x81) x81)))))) (= x116 (x146 x48 x48))))) (= x48 (x146 x48 x123))))) (= x123 (x146 x116 x116)))) (= (x146 x116 x123) x116)) (= x116 (x146 x33 x81))) (= x81 (x146 x33 x48)))) (= (x146 x33 x33) x123)))) (= x123 (x146 x123 x48))) (= (x146 x123 x116) x116)) (= x48 (x146 x123 x33))))))
(assert (or (or (or (or (not (= x48 (x146 x48 (x146 x48 x48)))) (not (= x81 (x146 x81 (x146 x81 x81))))) (not (= (x146 x116 (x146 x116 x116)) x116))) (not (= (x146 x33 (x146 x33 x33)) x33))) (not (= x123 (x146 x123 (x146 x123 x123))))))
(assert (or (not (= (x146 (x146 x123 x123) x123) x123)) (or (or (or (not (= x48 (x146 (x146 x48 x48) x48))) (not (= (x146 (x146 x81 x81) x81) x81))) (not (= (x146 (x146 x116 x116) x116) x116))) (not (= (x146 (x146 x33 x33) x33) x33)))))
(assert (let ((x88 (x146 x48 x48)) (x94 (x146 x33 x48)) (x126 (x146 x33 x116)) (x61 (x146 x81 x48)) (x4 (x146 x81 x81)) (x106 (x146 x123 x33)) (x79 (x146 x116 x81)) (x135 (x146 x48 x33)) (x132 (x146 x116 x33)) (x75 (x146 x123 x81)) (x35 (x146 x116 x123)) (x21 (x146 x48 x123)) (x13 (x146 x123 x116)) (x95 (x146 x116 x116)) (x56 (x146 x123 x123)) (x44 (x146 x33 x123)) (x22 (x146 x81 x116)) (x111 (x146 x48 x116)) (x29 (x146 x33 x33)) (x110 (x146 x116 x48)) (x154 (x146 x81 x33)) (x66 (x146 x48 x81)) (x153 (x146 x123 x48)) (x9 (x146 x81 x123)) (x50 (x146 x33 x81))) (let ((x8 (not (= x81 x79))) (x51 (not (= x81 x135))) (x138 (not (= x75 x123))) (x150 (not (= x48 x111))) (x18 (not (= x66 x48))) (x58 (not (= x116 x13))) (x55 (not (= x66 x81))) (x11 (not (= x81 x106))) (x89 (not (= x126 x81))) (x120 (not (= x154 x33))) (x62 (not (= x88 x48))) (x130 (not (= x116 x56))) (x41 (not (= x13 x33))) (x16 (not (= x48 x9))) (x157 (not (= x13 x81))) (x78 (not (= x132 x48))) (x87 (not (= x48 x50))) (x71 (not (= x35 x81))) (x127 (not (= x111 x116))) (x2 (not (= x48 x4))) (x124 (not (= x116 x9))) (x90 (not (= x116 x126))) (x136 (not (= x22 x33))) (x63 (not (= x88 x33))) (x148 (not (= x106 x123))) (x73 (not (= x94 x81))) (x49 (not (= x48 x29))) (x52 (not (= x79 x116))) (x26 (not (= x95 x116))) (x19 (not (= x126 x33))) (x149 (not (= x4 x123))) (x39 (not (= x111 x81))) (x141 (not (= x4 x81))) (x74 (not (= x81 x75))) (x158 (not (= x94 x116))) (x54 (not (= x116 x21))) (x93 (not (= x116 x35))) (x104 (not (= x48 x126))) (x27 (not (= x4 x116))) (x12 (not (= x88 x123))) (x72 (not (= x66 x116))) (x96 (not (= x4 x33))) (x129 (not (= x81 x154))) (x145 (not (= x154 x116))) (x38 (not (= x33 x153))) (x109 (not (= x50 x123))) (x117 (not (= x95 x81))) (x37 (not (= x33 x21))) (x125 (not (= x153 x48))) (x36 (not (= x56 x48))) (x134 (not (= x116 x61))) (x99 (not (= x44 x33))) (x64 (not (= x9 x123))) (x105 (not (= x111 x33))) (x30 (not (= x81 x56))) (x34 (not (= x44 x116))) (x91 (not (= x22 x123))) (x128 (not (= x116 x29))) (x155 (not (= x94 x48))) (x101 (not (= x116 x110))) (x53 (not (= x48 x75))) (x23 (not (= x48 x135))) (x102 (not (= x33 x110))) (x42 (not (= x123 x66))) (x31 (not (= x116 x75))) (x103 (not (= x110 x48))) (x143 (not (= x81 x153))) (x83 (not (= x154 x123))) (x82 (not (= x81 x29))) (x97 (not (= x116 x88))) (x142 (not (= x123 x21))) (x1 (not (= x33 x95))) (x43 (not (= x123 x111))) (x15 (not (= x110 x123))) (x144 (not (= x94 x123))) (x65 (not (= x123 x56))) (x20 (not (= x123 x61))) (x118 (not (= x33 x56))) (x139 (not (= x22 x81))) (x67 (not (= x33 x106))) (x47 (not (= x50 x33))) (x115 (not (= x33 x132))) (x59 (not (= x153 x123))) (x108 (not (= x106 x116))) (x25 (not (= x123 x79))) (x40 (not (= x75 x33))) (x14 (not (= x48 x35))) (x85 (not (= x135 x33))) (x131 (not (= x35 x123))) (x122 (not (= x48 x95))) (x140 (not (= x33 x61))) (x3 (not (= x48 x21))) (x114 (not (= x81 x9))) (x92 (not (= x22 x116))) (x121 (not (= x116 x153))) (x24 (not (= x22 x48))) (x86 (not (= x154 x48))) (x84 (not (= x29 x33))) (x151 (not (= x123 x13))) (x7 (not (= x132 x81))) (x137 (not (= x106 x48))) (x70 (not (= x116 x132))) (x6 (not (= x79 x48))) (x28 (not (= x116 x50))) (x32 (not (= x126 x123))) (x100 (not (= x9 x33))) (x112 (not (= x81 x50))) (x80 (not (= x81 x44))) (x68 (not (= x33 x94))) (x156 (not (= x123 x95))) (x5 (not (= x48 x13))) (x57 (not (= x135 x123))) (x60 (not (= x81 x21))) (x107 (not (= x48 x61))) (x152 (not (= x135 x116))) (x133 (not (= x81 x61))) (x46 (not (= x35 x33))) (x147 (not (= x48 x44))) (x98 (not (= x81 x110))) (x10 (not (= x81 x88))) (x113 (not (= x123 x29))) (x77 (not (= x44 x123))) (x76 (not (= x33 x79))) (x45 (not (= x132 x123))) (x17 (not (= x33 x66)))) (or (and (and (and (or x148 x77) (and (or x151 x131) (and (or x138 x64) (or x142 x59)))) (or x65 x65)) (and (and (and (and (or x45 x32) (and (and (or x25 x91) (or x15 x43)) (or x156 x156))) (or x151 x131)) (and (and (or x138 x64) (and (and (and (or x149 x149) (or x20 x42)) (or x25 x91)) (or x109 x83))) (and (or x142 x59) (and (or x57 x144) (and (and (or x42 x20) (or x12 x12)) (or x43 x15)))))) (and (or x148 x77) (and (or x113 x113) (and (and (or x57 x144) (or x83 x109)) (or x32 x45)))))) (or (or (or (and (and (and (or x80 x11) (and (and (or x89 x7) (and (or x73 x51) (or x129 x112))) (or x82 x82))) (and (and (and (or x114 x74) (and (and (and (or x141 x141) (or x55 x133)) (or x8 x139)) (or x112 x129))) (and (and (and (or x98 x39) (and (or x10 x10) (or x133 x55))) (or x51 x73)) (or x143 x60))) (and (and (or x89 x7) (and (and (or x98 x39) (or x8 x139)) (or x117 x117))) (or x71 x157)))) (and (or x30 x30) (and (and (or x71 x157) (and (or x74 x114) (or x143 x60))) (or x80 x11)))) (and (and (and (and (and (and (or x87 x86) (and (and (or x2 x2) (or x18 x107)) (or x24 x6))) (or x16 x53)) (and (and (and (and (or x62 x62) (or x107 x18)) (or x103 x150)) (or x23 x155)) (or x125 x3))) (and (or x5 x14) (and (and (or x122 x122) (and (or x6 x24) (or x103 x150))) (or x104 x78)))) (and (or x147 x137) (and (and (or x104 x78) (and (or x23 x155) (or x87 x86))) (or x49 x49)))) (and (or x36 x36) (and (and (or x5 x14) (and (or x125 x3) (or x53 x16))) (or x147 x137))))) (and (and (and (or x108 x34) (and (or x93 x58) (and (or x124 x31) (or x121 x54)))) (or x130 x130)) (and (and (and (or x93 x58) (and (and (and (or x127 x101) (or x52 x92)) (or x26 x26)) (or x70 x90))) (and (and (or x31 x124) (and (and (or x92 x52) (and (or x72 x134) (or x27 x27))) (or x145 x28))) (and (or x54 x121) (and (or x152 x158) (and (and (or x97 x97) (or x72 x134)) (or x127 x101)))))) (and (or x108 x34) (and (and (and (or x145 x28) (or x152 x158)) (or x90 x70)) (or x128 x128)))))) (and (and (and (or x67 x99) (and (or x84 x84) (and (or x115 x19) (and (or x85 x68) (or x120 x47))))) (and (and (and (and (or x68 x85) (and (and (or x17 x140) (or x63 x63)) (or x105 x102))) (or x37 x38)) (and (and (or x47 x120) (and (and (or x140 x17) (or x96 x96)) (or x76 x136))) (or x40 x100))) (and (or x41 x46) (and (or x19 x115) (and (or x1 x1) (and (or x136 x76) (or x102 x105))))))) (and (and (and (or x46 x41) (and (or x37 x38) (or x100 x40))) (or x99 x67)) (or x118 x118))))))))
(assert (and (= x123 (x146 x116 x116)) (and (= (x146 x123 x81) x33) (and (= (x146 x116 x81) x48) (= x81 (x146 x123 x123))))))
(assert (and (or (= (x146 x123 (x146 x123 x123)) x123) (or (or (or (= x48 (x146 x123 (x146 x123 x48))) (= x81 (x146 x123 (x146 x123 x81)))) (= (x146 x123 (x146 x123 x116)) x116)) (= (x146 x123 (x146 x123 x33)) x33))) (and (or (or (= (x146 x33 (x146 x33 x33)) x33) (or (= (x146 x33 (x146 x33 x116)) x116) (or (= x81 (x146 x33 (x146 x33 x81))) (= (x146 x33 (x146 x33 x48)) x48)))) (= (x146 x33 (x146 x33 x123)) x123)) (and (or (= x123 (x146 x116 (x146 x116 x123))) (or (= (x146 x116 (x146 x116 x33)) x33) (or (= x116 (x146 x116 (x146 x116 x116))) (or (= (x146 x116 (x146 x116 x48)) x48) (= x81 (x146 x116 (x146 x116 x81))))))) (and (or (= x123 (x146 x81 (x146 x81 x123))) (or (or (or (= x48 (x146 x81 (x146 x81 x48))) (= (x146 x81 (x146 x81 x81)) x81)) (= (x146 x81 (x146 x81 x116)) x116)) (= (x146 x81 (x146 x81 x33)) x33))) (or (or (or (or (= (x146 x48 (x146 x48 x81)) x81) (= x48 (x146 x48 (x146 x48 x48)))) (= (x146 x48 (x146 x48 x116)) x116)) (= (x146 x48 (x146 x48 x33)) x33)) (= x123 (x146 x48 (x146 x48 x123)))))))))
(assert (let ((x8 (x146 x123 (x146 x123 x123))) (x10 (x146 x33 (x146 x33 x33))) (x141 (x146 x81 (x146 x81 x81))) (x55 (x146 x48 (x146 x48 x48))) (x133 (x146 x116 (x146 x116 x116)))) (or (or (or (or (and (and (not (= x10 x48)) (and (not (= x133 x48)) (and (not (= x48 x55)) (not (= x141 x48))))) (not (= x8 x48))) (and (not (= x8 x81)) (and (and (and (not (= x81 x141)) (not (= x55 x81))) (not (= x133 x81))) (not (= x81 x10))))) (and (and (and (not (= x133 x116)) (and (not (= x141 x116)) (not (= x116 x55)))) (not (= x116 x10))) (not (= x116 x8)))) (and (and (and (not (= x33 x133)) (and (not (= x33 x55)) (not (= x33 x141)))) (not (= x10 x33))) (not (= x8 x33)))) (and (not (= x123 x8)) (and (not (= x10 x123)) (and (and (not (= x141 x123)) (not (= x55 x123))) (not (= x133 x123))))))))
(assert (or (= (x146 x123 x123) x123) (or (= (x146 x33 x33) x33) (or (= (x146 x116 x116) x116) (or (= x48 (x146 x48 x48)) (= (x146 x81 x81) x81))))))
(assert (and (and (and (not (= x116 x33)) (and (not (= x123 x48)) (and (not (= x48 x33)) (and (and (not (= x81 x123)) (and (not (= x81 x33)) (and (not (= x116 x81)) (not (= x81 x48))))) (not (= x48 x116)))))) (not (= x123 x116))) (not (= x123 x33))))
(assert (or (or (or (or (and (and (= (x146 x81 (x146 x81 x33)) x33) (and (and (= x81 (x146 x81 (x146 x81 x81))) (= x48 (x146 x81 (x146 x81 x48)))) (= x116 (x146 x81 (x146 x81 x116))))) (= (x146 x81 (x146 x81 x123)) x123)) (and (and (= x33 (x146 x48 (x146 x48 x33))) (and (and (= (x146 x48 (x146 x48 x48)) x48) (= x81 (x146 x48 (x146 x48 x81)))) (= x116 (x146 x48 (x146 x48 x116))))) (= (x146 x48 (x146 x48 x123)) x123))) (and (and (and (and (= x81 (x146 x116 (x146 x116 x81))) (= x48 (x146 x116 (x146 x116 x48)))) (= x116 (x146 x116 (x146 x116 x116)))) (= x33 (x146 x116 (x146 x116 x33)))) (= x123 (x146 x116 (x146 x116 x123))))) (and (= (x146 x33 (x146 x33 x123)) x123) (and (= x33 (x146 x33 (x146 x33 x33))) (and (= x116 (x146 x33 (x146 x33 x116))) (and (= (x146 x33 (x146 x33 x48)) x48) (= x81 (x146 x33 (x146 x33 x81)))))))) (and (= (x146 x123 (x146 x123 x123)) x123) (and (= (x146 x123 (x146 x123 x33)) x33) (and (and (= (x146 x123 (x146 x123 x81)) x81) (= (x146 x123 (x146 x123 x48)) x48)) (= (x146 x123 (x146 x123 x116)) x116))))))
(assert (or (and (not (= (x146 (x146 x123 x123) x123) x123)) (and (and (and (not (= x48 (x146 (x146 x123 x48) x48))) (not (= x81 (x146 (x146 x123 x81) x81)))) (not (= (x146 (x146 x123 x116) x116) x116))) (not (= (x146 (x146 x123 x33) x33) x33)))) (or (or (or (and (and (and (and (not (= (x146 (x146 x48 x81) x81) x81)) (not (= x48 (x146 (x146 x48 x48) x48)))) (not (= (x146 (x146 x48 x116) x116) x116))) (not (= x33 (x146 (x146 x48 x33) x33)))) (not (= (x146 (x146 x48 x123) x123) x123))) (and (and (and (not (= x116 (x146 (x146 x81 x116) x116))) (and (not (= (x146 (x146 x81 x81) x81) x81)) (not (= x48 (x146 (x146 x81 x48) x48))))) (not (= x33 (x146 (x146 x81 x33) x33)))) (not (= x123 (x146 (x146 x81 x123) x123))))) (and (and (and (and (not (= (x146 (x146 x116 x48) x48) x48)) (not (= (x146 (x146 x116 x81) x81) x81))) (not (= x116 (x146 (x146 x116 x116) x116)))) (not (= (x146 (x146 x116 x33) x33) x33))) (not (= x123 (x146 (x146 x116 x123) x123))))) (and (not (= x123 (x146 (x146 x33 x123) x123))) (and (not (= (x146 (x146 x33 x33) x33) x33)) (and (and (not (= x81 (x146 (x146 x33 x81) x81))) (not (= x48 (x146 (x146 x33 x48) x48)))) (not (= x116 (x146 (x146 x33 x116) x116)))))))))
(assert (or (or (and (and (not (= (x146 (x146 x33 x33) x33) x33)) (and (not (= x116 (x146 (x146 x33 x116) x33))) (and (not (= (x146 (x146 x33 x48) x33) x48)) (not (= x81 (x146 (x146 x33 x81) x33)))))) (not (= (x146 (x146 x33 x123) x33) x123))) (or (or (and (and (and (and (not (= (x146 (x146 x81 x48) x81) x48)) (not (= x81 (x146 (x146 x81 x81) x81)))) (not (= (x146 (x146 x81 x116) x81) x116))) (not (= (x146 (x146 x81 x33) x81) x33))) (not (= (x146 (x146 x81 x123) x81) x123))) (and (and (not (= (x146 (x146 x48 x33) x48) x33)) (and (and (not (= x81 (x146 (x146 x48 x81) x48))) (not (= x48 (x146 (x146 x48 x48) x48)))) (not (= x116 (x146 (x146 x48 x116) x48))))) (not (= x123 (x146 (x146 x48 x123) x48))))) (and (not (= x123 (x146 (x146 x116 x123) x116))) (and (not (= (x146 (x146 x116 x33) x116) x33)) (and (not (= (x146 (x146 x116 x116) x116) x116)) (and (not (= (x146 (x146 x116 x81) x116) x81)) (not (= x48 (x146 (x146 x116 x48) x116))))))))) (and (and (and (and (not (= (x146 (x146 x123 x81) x123) x81)) (not (= x48 (x146 (x146 x123 x48) x123)))) (not (= (x146 (x146 x123 x116) x123) x116))) (not (= x33 (x146 (x146 x123 x33) x123)))) (not (= (x146 (x146 x123 x123) x123) x123)))))
(assert (let ((x71 (x146 x48 x123)) (x2 (x146 x123 x48)) (x127 (x146 x123 x33)) (x100 (x146 x123 x123)) (x8 (x146 x81 x33)) (x139 (x146 x81 x123)) (x21 (x146 x116 x116)) (x117 (x146 x116 x81)) (x133 (x146 x81 x48)) (x60 (x146 x48 x116)) (x55 (x146 x81 x81)) (x157 (x146 x48 x33)) (x10 (x146 x81 x116)) (x112 (x146 x33 x81)) (x72 (x146 x33 x33)) (x134 (x146 x33 x123)) (x95 (x146 x33 x116)) (x122 (x146 x123 x116)) (x6 (x146 x116 x123)) (x39 (x146 x48 x81)) (x129 (x146 x123 x81)) (x4 (x146 x33 x48)) (x143 (x146 x48 x48)) (x153 (x146 x116 x33)) (x30 (x146 x116 x48))) (let ((x50 (= x33 x143)) (x140 (= x123 x153)) (x78 (= x33 x21)) (x75 (= x123 x133)) (x82 (= x133 x81)) (x138 (= x129 x123)) (x12 (= x71 x116)) (x111 (= x81 x60)) (x132 (= x117 x116)) (x125 (= x4 x81)) (x57 (= x71 x33)) (x67 (= x48 x100)) (x68 (= x81 x134)) (x25 (= x6 x116)) (x56 (= x112 x48)) (x104 (= x33 x60)) (x58 (= x33 x153)) (x109 (= x33 x122)) (x63 (= x123 x72)) (x91 (= x116 x134)) (x101 (= x48 x72)) (x150 (= x48 x21)) (x17 (= x123 x157)) (x32 (= x33 x6)) (x103 (= x60 x48)) (x92 (= x153 x48)) (x40 (= x48 x127)) (x37 (= x48 x71)) (x152 (= x157 x116)) (x80 (= x143 x48)) (x5 (= x8 x81)) (x120 (= x6 x81)) (x22 (= x116 x143)) (x54 (= x157 x33)) (x31 (= x4 x33)) (x144 (= x139 x33)) (x49 (= x30 x123)) (x3 (= x81 x95)) (x62 (= x10 x81)) (x84 (= x48 x122)) (x137 (= x153 x81)) (x46 (= x134 x48)) (x141 (= x81 x55)) (x115 (= x2 x48)) (x77 (= x134 x123)) (x38 (= x139 x48)) (x85 (= x81 x100)) (x107 (= x81 x117)) (x155 (= x33 x30)) (x64 (= x2 x123)) (x106 (= x60 x123)) (x41 (= x48 x6)) (x35 (= x116 x10)) (x53 (= x21 x123)) (x145 (= x116 x95)) (x70 (= x72 x116)) (x93 (= x33 x72)) (x7 (= x39 x81)) (x121 (= x33 x8)) (x90 (= x153 x116)) (x74 (= x143 x81)) (x102 (= x122 x81)) (x13 (= x60 x116)) (x19 (= x129 x48)) (x88 (= x30 x81)) (x66 (= x133 x116)) (x147 (= x81 x72)) (x28 (= x4 x116)) (x73 (= x55 x116)) (x131 (= x71 x123)) (x44 (= x10 x123)) (x113 (= x33 x100)) (x51 (= x33 x55)) (x158 (= x8 x116)) (x76 (= x81 x129)) (x128 (= x112 x33)) (x118 (= x116 x2)) (x105 (= x127 x81)) (x11 (= x48 x133)) (x14 (= x81 x157)) (x36 (= x4 x48)) (x124 (= x33 x95)) (x61 (= x116 x39)) (x26 (= x116 x112)) (x156 (= x2 x33)) (x130 (= x95 x123)) (x89 (= x123 x55)) (x136 (= x81 x2)) (x108 (= x123 x112)) (x42 (= x127 x116)) (x148 (= x123 x6)) (x43 (= x33 x129)) (x94 (= x48 x30)) (x20 (= x116 x139)) (x135 (= x117 x48)) (x110 (= x21 x81)) (x151 (= x139 x123)) (x24 (= x10 x48)) (x86 (= x117 x33)) (x98 (= x48 x55)) (x47 (= x71 x81)) (x23 (= x10 x33)) (x9 (= x123 x39)) (x1 (= x81 x139)) (x87 (= x21 x116)) (x34 (= x123 x4)) (x27 (= x48 x95)) (x97 (= x8 x48)) (x83 (= x127 x33)) (x65 (= x123 x100)) (x142 (= x123 x127)) (x15 (= x100 x116)) (x79 (= x33 x39)) (x99 (= x116 x129)) (x149 (= x116 x122)) (x45 (= x33 x134)) (x114 (= x48 x39)) (x126 (= x30 x116)) (x18 (= x143 x123)) (x59 (= x123 x122)) (x29 (= x117 x123)) (x16 (= x81 x112)) (x96 (= x8 x123)) (x52 (= x157 x48)) (x154 (= x133 x33))) (and (and (and (and (and (and (and (or (or (or x86 (or x79 x51)) x128) x43) (or (or (or x23 (or x154 x51)) x121) x144)) (and (and (or (or x158 (or (or x66 x73) x35)) x20) (or (or x26 (or (or x73 x61) x132)) x99)) (and (and (or x38 (or x97 (or (or x98 x11) x24))) (or (or (or (or x98 x114) x135) x56) x19)) (and (or (or x16 (or x107 (or x7 x141))) x76) (or (or x5 (or (or x82 x141) x62)) x1))))) (and (or (or (or x44 (or x89 x75)) x96) x151) (or (or x108 (or (or x9 x89) x29)) x138))) (and (and (or (or x17 (or x106 (or x18 x9))) x131) (or (or (or (or x75 x18) x49) x34) x64)) (and (and (and (or (or x28 (or (or x22 x66) x126)) x118) (or (or (or (or x22 x61) x13) x152) x12)) (and (and (or (or (or x88 (or x82 x74)) x125) x136) (or (or (or x111 (or x7 x74)) x14) x47)) (and (or x37 (or x52 (or x103 (or x80 x114)))) (or x115 (or (or x94 (or x80 x11)) x36))))) (and (or x57 (or x54 (or (or x79 x50) x104))) (or x156 (or (or (or x50 x154) x155) x31)))))) (and (and (or (or (or x53 (or x106 x44)) x130) x59) (or (or x140 (or (or x49 x29) x53)) x148)) (and (and (and (and (or (or x27 (or (or x24 x103) x150)) x84) (or (or (or x150 (or x135 x94)) x92) x41)) (and (or x102 (or (or (or x62 x111) x110) x3)) (or (or (or (or x88 x107) x110) x137) x120))) (and (or x25 (or (or (or x126 x132) x87) x90)) (or (or x145 (or (or x35 x13) x87)) x149))) (and (or (or (or (or x23 x104) x78) x124) x109) (or (or (or x78 (or x86 x155)) x58) x32))))) (and (and (or (or (or x130 (or x34 x108)) x63) x77) (or x142 (or x63 (or (or x96 x17) x140)))) (and (and (and (or x91 (or x70 (or x145 (or x28 x26)))) (or (or (or x90 (or x158 x152)) x70) x42)) (and (and (or x46 (or x101 (or (or x56 x36) x27))) (or (or x101 (or x92 (or x52 x97))) x40)) (and (or x68 (or x147 (or x3 (or x16 x125)))) (or x105 (or (or x137 (or x5 x14)) x147))))) (and (or (or (or x124 (or x31 x128)) x93) x45) (or x83 (or x93 (or x58 (or x121 x54)))))))) (and (and (or x65 (or (or (or x131 x151) x148) x77)) (or x65 (or x142 (or (or x138 x64) x59)))) (and (and (or (or (or (or x43 x156) x109) x83) x113) (or x113 (or x45 (or (or x144 x57) x32)))) (and (and (or x15 (or (or (or x12 x20) x25) x91)) (or (or (or (or x118 x99) x149) x42) x15)) (and (and (or x85 (or (or (or x1 x47) x120) x68)) (or x85 (or (or x102 (or x136 x76)) x105))) (and (or (or (or (or x37 x38) x41) x46) x67) (or (or x40 (or x84 (or x19 x115))) x67))))))))))
(check-sat)
(exit)
